(set-logic HORN)
(declare-datatypes ((Bool_0 0)) (((false_0 ) (true_0 ))))
(declare-fun diseqBool_0 (Bool_0 Bool_0) Bool)
(declare-datatypes ((Nat_0 0)) (((Z_0 ) (S_0 (projS_0 Nat_0)))))
(declare-fun x_0 (Bool_0 Nat_0 Nat_0) Bool)
(declare-fun x_3 (Nat_0 Nat_0 Nat_0) Bool)
(assert (diseqBool_0 false_0 true_0))
(assert (diseqBool_0 true_0 false_0))
(assert (forall ((x_5 Bool_0) (x_2 Nat_0) (z_1 Nat_0))
	(=> (x_0 x_5 z_1 x_2) (x_0 x_5 (S_0 z_1) (S_0 x_2)))))
(assert (forall ((z_1 Nat_0))
	(x_0 false_0 (S_0 z_1) Z_0)))
(assert (forall ((y_0 Nat_0))
	(x_0 true_0 Z_0 y_0)))
(assert (forall ((x_10 Nat_0) (z_2 Nat_0) (y_1 Nat_0))
	(=> (x_3 x_10 z_2 y_1) (x_3 (S_0 x_10) (S_0 z_2) y_1))))
(assert (forall ((x_11 Nat_0))
	(x_3 x_11 Z_0 x_11)))
(assert (forall ((x_12 Nat_0) (x_13 Bool_0) (n_0 Nat_0) (m_0 Nat_0))
	(=> (and (diseqBool_0 x_13 true_0) (x_3 x_12 m_0 n_0) (x_0 x_13 n_0 x_12)) false)))
(check-sat)
(get-model)
